p cnf 158 757
-7 -13 28 -19 0
-13 29 -1 -25 0
-22 -13 -4 30 0
-16 -7 31 -25 0
32 -19 -10 -1 0
33 -22 -19 -25 0
-16 34 -13 -10 0
-7 35 -4 -1 0
36 -11 -18 0
-12 37 -17 0
-23 -6 38 0
-24 -5 39 0
40 -11 -17 0
-23 -5 41 0
-41 -28 -25 -40 -1 0
42 -12 -18 0
-24 -6 43 0
-8 44 -3 0
-27 -20 45 0
-9 46 -2 0
-21 -26 47 0
48 -23 -4 0
49 -22 -5 0
50 -10 -17 0
-16 51 -11 0
-8 52 -2 0
-20 53 -26 0
-24 -14 54 0
-14 -6 55 0
-8 56 -1 0
-56 -30 -45 -36 0
57 -19 -26 0
58 -20 -25 0
-7 59 -2 0
-47 -30 -37 -59 0
60 -18 -26 0
-20 -12 61 0
-21 62 -2 0
-8 -27 63 0
64 -3 -11 0
65 -17 -9 0
-16 66 -12 0
67 -18 -10 0
-14 -5 68 0
-23 -14 69 0
-15 -5 70 0
-15 -23 71 0
72 -6 -22 0
-24 73 -4 0
74 -20 -10 0
-16 75 -26 0
76 -26 -1 0
-7 -20 77 0
78 -2 -25 0
-8 -19 79 0
80 -1 -9 0
81 -27 -19 0
82 -21 -25 0
-7 83 -3 0
-20 -11 -1 84 0
-11 85 -19 -2 0
86 -7 -26 -17 0
-8 -17 87 -25 0
88 -14 -18 0
89 -14 -12 0
-14 -22 90 0
-14 91 -4 0
-7 92 -27 -17 0
-21 93 -11 -1 0
-5 94 -13 0
-46 -94 -36 -33 0
-46 -94 -37 -33 0
-94 -37 -44 -33 0
-94 -36 -44 -33 0
-23 -13 95 0
-47 -37 -35 -95 0
-95 -45 -36 -35 0
-8 -29 96 0
-16 -96 -74 -41 0
-96 -21 -36 -48 0
-96 -21 -36 -49 0
-96 -21 -37 -49 0
-96 -40 -22 -20 -4 0
-96 -38 -20 -67 0
-96 -39 -20 -67 0
-96 -21 -43 -37 0
-96 -21 -36 -43 0
-96 -16 -38 -61 0
-96 -16 -61 -39 0
-96 -36 -20 -72 0
-96 -21 -72 -40 0
-96 -37 -20 -72 0
-96 -36 -20 -73 0
-96 -40 -21 -73 0
-96 -37 -20 -73 0
-96 -21 -37 -48 0
97 -28 -2 0
-97 -36 -27 -49 0
-38 -66 -26 -97 0
-97 -37 -27 -49 0
-39 -66 -26 -97 0
-26 -40 -22 -4 -97 0
-38 -60 -10 -97 0
-39 -60 -10 -97 0
-43 -37 -27 -97 0
-43 -36 -27 -97 0
-72 -36 -26 -97 0
-40 -27 -72 -97 0
-72 -37 -26 -97 0
-40 -97 -27 -73 0
-97 -36 -26 -73 0
-97 -37 -26 -73 0
-97 -75 -10 -41 0
-48 -37 -27 -97 0
-48 -36 -27 -97 0
98 -29 -9 0
-39 -98 -20 -50 0
-38 -98 -20 -50 0
-39 -20 -51 -98 0
-38 -20 -51 -98 0
-40 -39 -19 -98 0
-40 -38 -19 -98 0
-16 -61 -98 -41 0
-36 -19 -98 -41 0
-37 -19 -98 -41 0
-72 -20 -98 -40 0
-39 -98 -20 -42 0
-38 -98 -20 -42 0
-40 -20 -98 -73 0
-20 -67 -98 -41 0
99 -28 -3 0
-40 -39 -99 -25 0
-72 -99 -26 -40 0
-40 -99 -26 -73 0
-40 -38 -99 -25 0
-25 -36 -99 -41 0
-41 -37 -99 -25 0
-39 -42 -26 -99 0
-38 -42 -26 -99 0
-66 -99 -26 -41 0
-39 -50 -26 -99 0
-60 -99 -10 -41 0
-38 -50 -26 -99 0
-39 -51 -26 -99 0
-38 -51 -26 -99 0
100 -3 -9 0
-40 -94 -100 -33 0
-100 -30 -45 -36 0
-47 -30 -37 -100 0
-27 -21 101 0
-40 -95 -101 -35 0
-32 -15 102 0
-65 -41 -102 -25 0
-41 -25 -8 -102 -18 0
-8 -102 -60 -49 0
-7 -102 -60 -41 0
-38 -102 -60 -9 0
-8 -102 -60 -43 0
-48 -8 -102 -60 0
-39 -102 -60 -9 0
-38 -86 -102 0
-39 -86 -102 0
-87 -38 -102 0
-87 -102 -39 0
-8 -39 -102 -75 0
-102 -9 -75 -41 0
-16 -63 -102 -41 0
-8 -38 -75 -102 0
-63 -102 -43 -17 0
-63 -102 -39 -18 0
-63 -102 -17 -49 0
-63 -38 -18 -102 0
-48 -63 -102 -17 0
-102 -92 -41 0
-15 -31 103 0
-12 -41 -103 -19 -2 0
-103 -38 -84 0
-39 -103 -84 0
-103 -38 -85 0
-39 -103 -85 0
-103 -38 -61 -3 0
-103 -61 -1 -41 0
-103 -3 -74 -41 0
-39 -103 -74 -2 0
-103 -38 -74 -2 0
-103 -61 -43 -2 0
-48 -103 -61 -2 0
-39 -103 -61 -3 0
-103 -61 -2 -49 0
-48 -103 -62 -11 0
-103 -62 -11 -49 0
-43 -103 -62 -11 0
-39 -62 -103 -12 0
-103 -62 -10 -41 0
-103 -62 -12 -38 0
-103 -93 -41 0
-64 -103 -19 -41 0
-32 -14 104 0
-48 -86 -104 0
-104 -86 -49 0
-104 -86 -43 0
-48 -87 -104 0
-104 -87 -49 0
-104 -87 -43 0
-104 -9 -60 -49 0
-48 -104 -75 -8 0
-104 -39 -75 -9 0
-104 -7 -38 -60 0
-104 -8 -75 -49 0
-104 -7 -60 -39 0
-48 -60 -104 -9 0
-104 -60 -43 -9 0
-104 -8 -43 -75 0
-104 -38 -75 -9 0
-104 -39 -92 0
-104 -38 -92 0
-16 -63 -39 -104 0
-16 -63 -38 -104 0
-43 -104 -27 -65 0
-104 -65 -27 -49 0
-48 -104 -27 -65 0
-104 -39 -65 -25 0
-104 -65 -38 -25 0
-31 -14 105 0
-48 -2 -74 -105 0
-39 -3 -74 -105 0
-38 -3 -74 -105 0
-2 -43 -74 -105 0
-105 -2 -74 -49 0
-39 -93 -105 0
-38 -93 -105 0
-38 -61 -1 -105 0
-48 -61 -3 -105 0
-3 -61 -43 -105 0
-39 -61 -1 -105 0
-105 -61 -3 -49 0
-38 -62 -10 -105 0
-39 -62 -10 -105 0
-64 -39 -19 -105 0
-64 -105 -21 -49 0
-64 -38 -19 -105 0
-64 -105 -21 -48 0
-64 -21 -43 -105 0
-48 -84 -105 0
-49 -84 -105 0
-84 -43 -105 0
-48 -85 -105 0
-49 -85 -105 0
-85 -43 -105 0
-15 106 -6 -33 0
-46 -36 -106 0
-46 -37 -106 0
-52 -42 -106 0
-52 -50 -106 0
-40 -106 -56 0
-52 -51 -106 0
-37 -44 -106 0
-40 -59 -106 0
-44 -36 -106 0
-40 -100 -106 0
-24 -15 107 -35 0
-40 -107 -58 0
-53 -107 -42 0
-47 -37 -107 0
-53 -107 -50 0
-40 -101 -107 0
-53 -51 -107 0
-40 -107 -57 0
-45 -36 -107 0
-30 -52 108 0
-45 -108 -67 0
-40 -108 -19 -25 0
-108 -42 -57 0
-16 -53 -108 -10 0
-101 -108 -50 0
-108 -51 -57 0
-36 -108 -81 0
-101 -108 -51 0
-108 -42 -58 0
-37 -108 -81 0
-101 -108 -42 0
-108 -50 -58 0
-47 -108 -66 0
-45 -108 -66 0
-36 -108 -82 0
-37 -108 -82 0
-47 -108 -67 0
-30 -53 109 0
-109 -59 -42 0
-109 -59 -50 0
-80 -109 -36 0
-56 -109 -51 0
-80 -37 -109 0
-109 -36 -83 0
-37 -109 -83 0
-40 -7 -109 -1 0
-109 -100 -42 0
-46 -109 -66 0
-109 -100 -50 0
-109 -100 -51 0
-109 -44 -66 0
-109 -44 -67 0
-46 -109 -67 0
-56 -109 -42 0
-44 -34 110 0
-110 -45 -43 0
-110 -53 -73 0
-39 -110 -57 0
-110 -82 -41 0
-47 -110 -43 0
-38 -57 -110 0
-39 -110 -101 0
-38 -101 -110 0
-48 -110 -45 0
-48 -47 -110 0
-39 -110 -58 0
-38 -58 -110 0
-47 -110 -49 0
-110 -45 -49 0
-72 -110 -53 0
-110 -41 -81 0
-46 -34 111 0
-111 -38 -101 0
-111 -38 -57 0
-39 -111 -101 0
-111 -45 -43 0
-39 -111 -57 0
-47 -111 -43 0
-48 -111 -45 0
-48 -47 -111 0
-111 -38 -58 0
-111 -45 -49 0
-47 -111 -49 0
-39 -111 -58 0
-72 -111 -53 0
-111 -41 -81 0
-111 -53 -73 0
-111 -82 -41 0
112 -69 -35 0
-112 -45 -67 0
-112 -50 -58 0
-112 -42 -58 0
-112 -45 -66 0
-112 -36 -81 0
-112 -42 -57 0
-112 -37 -81 0
-112 -47 -67 0
-112 -51 -57 0
-112 -47 -66 0
-112 -36 -82 0
-112 -37 -82 0
-112 -101 -51 0
-112 -101 -42 0
-112 -101 -50 0
113 -68 -33 0
-59 -42 -113 0
-56 -42 -113 0
-44 -67 -113 0
-56 -51 -113 0
-46 -67 -113 0
-44 -66 -113 0
-36 -83 -113 0
-37 -83 -113 0
-100 -42 -113 0
-100 -50 -113 0
-100 -51 -113 0
-80 -37 -113 0
-80 -36 -113 0
-46 -66 -113 0
-59 -50 -113 0
-54 -35 114 0
-45 -51 -114 0
-47 -51 -114 0
-45 -42 -114 0
-47 -50 -114 0
-36 -58 -114 0
-37 -58 -114 0
-36 -114 -57 0
-37 -114 -57 0
-53 -66 -114 0
-45 -50 -114 0
-53 -67 -114 0
-101 -36 -114 0
-101 -37 -114 0
-47 -42 -114 0
-71 115 -35 0
-36 -115 -58 0
-47 -115 -50 0
-45 -51 -115 0
-37 -115 -58 0
-45 -115 -42 0
-36 -115 -57 0
-47 -51 -115 0
-45 -115 -50 0
-37 -115 -57 0
-40 -115 -81 0
-101 -36 -115 0
-101 -115 -37 0
-40 -115 -82 0
-47 -115 -42 0
-55 116 -33 0
-44 -116 -51 0
-46 -116 -51 0
-44 -116 -42 0
-44 -116 -50 0
-46 -116 -42 0
-36 -116 -59 0
-37 -116 -59 0
-56 -36 -116 0
-56 -37 -116 0
-116 -36 -100 0
-100 -37 -116 0
-52 -116 -66 0
-52 -116 -67 0
-46 -116 -50 0
-70 117 -33 0
-100 -117 -36 0
-37 -100 -117 0
-46 -117 -50 0
-117 -36 -59 0
-117 -44 -42 0
-117 -44 -51 0
-37 -117 -59 0
-56 -117 -36 0
-56 -37 -117 0
-80 -117 -40 0
-117 -44 -50 0
-46 -117 -51 0
-46 -117 -42 0
-40 -117 -83 0
-40 -30 118 0
-118 -101 -59 0
-80 -47 -118 0
-80 -118 -45 0
-81 -46 -118 0
-118 -44 -81 0
-46 -82 -118 0
-118 -100 -57 0
-118 -44 -82 0
-47 -118 -83 0
-118 -100 -58 0
-118 -45 -83 0
-56 -118 -101 0
-118 -101 -100 0
-52 -34 119 0
-119 -38 -81 0
-119 -38 -82 0
-48 -119 -57 0
-72 -47 -119 0
-119 -43 -57 0
-72 -119 -45 0
-119 -45 -73 0
-47 -119 -73 0
-119 -43 -58 0
-48 -119 -58 0
-119 -101 -43 0
-48 -119 -101 0
120 -30 -44 0
-120 -47 -42 0
-120 -101 -36 0
-120 -36 -57 0
-120 -101 -37 0
-120 -45 -50 0
-120 -36 -58 0
-120 -37 -58 0
-120 -45 -51 0
-120 -47 -51 0
-120 -45 -42 0
121 -46 -30 0
-101 -36 -121 0
-45 -42 -121 0
-101 -37 -121 0
-57 -36 -121 0
-57 -37 -121 0
-47 -42 -121 0
-37 -58 -121 0
-47 -50 -121 0
-45 -50 -121 0
-47 -51 -121 0
-32 122 -13 0
-63 -41 -122 -18 0
-63 -39 -122 -17 0
-63 -38 -122 -17 0
-39 -65 -122 -26 0
-9 -60 -122 -41 0
-65 -38 -122 -26 0
-8 -38 -60 -122 0
-8 -39 -60 -122 0
-8 -75 -122 -41 0
-31 123 -13 0
-64 -38 -20 -123 0
-64 -39 -20 -123 0
-2 -123 -74 -41 0
-38 -61 -123 -2 0
-3 -61 -123 -41 0
-39 -61 -123 -2 0
-62 -12 -123 -41 0
-11 -62 -38 -123 0
-11 -62 -39 -123 0
-29 124 -77 0
-39 -37 -124 0
-38 -36 -124 0
-39 -36 -124 0
-124 -51 -41 0
-38 -37 -124 0
-124 -50 -41 0
-124 -42 -41 0
-79 -29 125 0
-39 -125 -36 0
-125 -50 -41 0
-38 -37 -125 0
-125 -42 -41 0
-125 -51 -41 0
-38 -125 -36 0
-39 -37 -125 0
-76 -28 126 0
-126 -51 -41 0
-38 -37 -126 0
-39 -126 -36 0
-39 -126 -37 0
-126 -50 -41 0
-38 -36 -126 0
-126 -42 -41 0
-78 -28 127 0
-39 -127 -36 0
-127 -50 -41 0
-127 -38 -37 0
-39 -127 -37 0
-127 -51 -41 0
-127 -42 -41 0
-127 -38 -36 0
128 -34 -41 0
-80 -45 -128 0
-80 -47 -128 0
-128 -100 -57 0
-128 -100 -58 0
-128 -45 -83 0
-128 -47 -83 0
-56 -101 -128 0
-128 -101 -100 0
-128 -101 -59 0
129 -21 -41 0
-64 -123 -129 0
-96 -66 -129 0
-50 -98 -129 0
-51 -98 -129 0
-96 -67 -129 0
-7 -29 -36 -129 0
-103 -12 -3 -129 0
-7 -29 -37 -129 0
-42 -98 -129 0
130 -27 -41 0
-66 -130 -97 0
-122 -130 -65 0
-67 -130 -97 0
-42 -99 -130 0
-130 -36 -28 -1 0
-102 -130 -18 -9 0
-130 -37 -28 -1 0
-50 -99 -130 0
-51 -130 -99 0
-39 131 -34 0
-47 -100 -131 0
-59 -45 -131 0
-47 -59 -131 0
-80 -53 -131 0
-53 -131 -83 0
-56 -45 -131 0
-56 -47 -131 0
-45 -100 -131 0
-38 -21 132 0
-37 -132 -98 0
-96 -132 -50 0
-96 -132 -42 0
-96 -132 -51 0
-40 -7 -29 -132 0
-64 -103 -132 0
-36 -132 -98 0
-38 -27 133 0
-133 -51 -97 0
-133 -42 -97 0
-40 -133 -28 -1 0
-37 -99 -133 0
-133 -36 -99 0
-102 -133 -65 0
-133 -50 -97 0
-39 -21 134 0
-96 -134 -51 0
-96 -134 -42 0
-64 -103 -134 0
-40 -7 -134 -29 0
-134 -36 -98 0
-134 -37 -98 0
-96 -134 -50 0
-39 -27 135 0
-135 -36 -99 0
-135 -37 -99 0
-135 -102 -65 0
-40 -135 -28 -1 0
-135 -50 -97 0
-135 -51 -97 0
-135 -42 -97 0
136 -6 -13 -33 0
-40 -46 -136 0
-136 -36 -52 0
-40 -44 -136 0
-136 -37 -52 0
-24 137 -13 -35 0
-40 -47 -137 0
-53 -36 -137 0
-40 -45 -137 0
-37 -53 -137 0
-15 -22 -35 138 0
-40 -47 -138 0
-53 -36 -138 0
-37 -138 -53 0
-40 -45 -138 0
-15 139 -4 -33 0
-40 -44 -139 0
-37 -52 -139 0
-36 -52 -139 0
-40 -46 -139 0
140 -35 -90 0
-45 -140 -36 0
-47 -37 -140 0
-53 -140 -42 0
-53 -140 -50 0
-53 -140 -51 0
-91 141 -33 0
-141 -52 -51 0
-37 -44 -141 0
-46 -141 -36 0
-141 -52 -42 0
-46 -37 -141 0
-44 -36 -141 0
-141 -52 -50 0
-32 142 -88 0
-142 -133 -9 0
-8 -39 -142 -25 0
-8 -38 -142 -25 0
-63 -142 -49 0
-48 -63 -142 0
-63 -142 -43 0
-135 -142 -9 0
-31 -89 143 0
-143 -134 -3 0
-143 -38 -19 -2 0
-143 -39 -19 -2 0
-143 -62 -49 0
-48 -143 -62 0
-143 -62 -43 0
-143 -132 -3 0
144 -53 -34 0
-56 -144 -49 0
-56 -144 -43 0
-144 -59 -49 0
-144 -43 -59 0
-144 -100 -49 0
-144 -100 -43 0
145 -38 -34 0
-56 -45 -145 0
-45 -59 -145 0
-47 -59 -145 0
-45 -100 -145 0
-47 -100 -145 0
-56 -47 -145 0
-55 -22 146 0
-32 -8 -60 -146 0
-31 -61 -146 -2 0
-31 -62 -11 -146 0
-32 -63 -146 -17 0
-64 -31 -20 -146 0
-32 -146 -26 -65 0
-54 147 -4 0
-32 -8 -60 -147 0
-31 -61 -147 -2 0
-31 -62 -11 -147 0
-32 -63 -147 -17 0
-64 -31 -20 -147 0
-32 -147 -26 -65 0
-47 -36 148 0
-56 -30 -148 0
-30 -148 -59 0
-95 -148 -35 0
-140 -148 0
-148 -107 0
-100 -30 -148 0
-37 149 -45 0
-30 -149 -59 0
-149 -140 0
-95 -149 -35 0
-149 -107 0
-30 -149 -100 0
-56 -30 -149 0
-43 150 -26 0
-150 -36 -99 0
-150 -37 -99 0
-150 -50 -97 0
-150 -51 -97 0
-150 -42 -97 0
-102 -150 -65 0
-48 -26 151 0
-151 -42 -97 0
-151 -37 -99 0
-151 -36 -99 0
-151 -102 -65 0
-151 -50 -97 0
-151 -51 -97 0
152 -26 -49 0
-152 -36 -99 0
-152 -37 -99 0
-152 -102 -65 0
-152 -42 -97 0
-152 -50 -97 0
-152 -51 -97 0
-40 153 -43 0
-126 -153 0
-21 -98 -153 0
-127 -153 0
-124 -153 0
-125 -153 0
-27 -99 -153 0
-40 154 -48 0
-126 -154 0
-127 -154 0
-21 -154 -98 0
-124 -154 0
-125 -154 0
-27 -154 -99 0
-40 155 -49 0
-127 -155 0
-124 -155 0
-21 -155 -98 0
-125 -155 0
-126 -155 0
-27 -155 -99 0
156 -20 -43 0
-37 -156 -98 0
-36 -156 -98 0
-64 -103 -156 0
-96 -156 -50 0
-96 -156 -51 0
-96 -156 -42 0
-48 -20 157 0
-96 -157 -42 0
-37 -98 -157 0
-157 -36 -98 0
-64 -103 -157 0
-96 -157 -50 0
-96 -157 -51 0
-20 158 -49 0
-158 -36 -98 0
-158 -37 -98 0
-64 -103 -158 0
-96 -158 -42 0
-96 -158 -50 0
-96 -158 -51 0
